NAME : XML100_1275_22
DIMENSION : 101
NB_CLUSTERS : 3
CLUSTERING_ALG : KMedoids
CLUSTERING_PARAMS : k(2)
CLUSTERS
1 0
2 1 2 3 5 6 9 10 11 15 16 18 21 22 23 24 26 27 28 29 30 34 37 38 40 41 43 46 51 52 55 58 64 65 66 67 71 72 76 77 78 82 88 89 92 93 94 97 99
3 4 7 8 12 13 14 17 19 20 25 31 32 33 35 36 39 42 44 45 47 48 49 50 53 54 56 57 59 60 61 62 63 68 69 70 73 74 75 79 80 81 83 84 85 86 87 90 91 95 96 98 100
EOF